# ----------------------------------------------------------------- 初始化
units        metal       # 单位制
dimension    3           # 维度
boundary     p p p       # 边界条件
atom_style   atomic      # 原子类型

# -------------------------------------------------------- 模拟区域信息设置
# ---------------------------------------基体Al区域
region       Al block -20.23 20.23 -20.93 20.93 -19.8 19.8                        # 设置模拟区域
create_box   3 Al                                                       # 设置区域内使用原子种类数
lattice      fcc 4.046 orient x 1 1 1 orient y -1 1 0 orient z -1 -1 2  # Al晶格
create_atoms 1 region Al                                                # 向region中添加基体Al原子
# 原子类型转化(solid solution state)

region       yita_del cylinder x -1.43048 -0.825886 10.323564 -15.18374 -6 units box
delete_atoms region yita_del
# 添加MgZn2
lattice custom 5.221 a1 0 0.866 -0.5 a2 0 0 1.0 a3 1.64087 0 0 basis 0 0 0 basis 0 0 0.5 basis 0.8305 0.1695 0.2500 basis 0.8305 0.6611 0.2500 basis 0.3389 0.1695 0.2500 basis 0.6611 0.8305 0.7500 basis 0.1695 0.3389 0.7500 basis 0.1695 0.8305 0.7500 basis 0.6667 0.3333 0.5630 basis 0.6667 0.3333 0.9370 basis 0.3333 0.6667 0.0630 basis 0.3333 0.6667 0.4370           # 自定义η在笛卡尔坐标系中的转换坐标 最后四组为Mg
create_atoms 2 region yita_del basis 1 2 basis 2 2 basis 3 2 basis 4 2 basis 5 2 basis 6 2 basis 7 2 basis 8 2 basis 9 3 basis 10 3 basis 11 3 basis 12 3

region       GP2_del cylinder x 0 -1.65177 10.07764 5.8399 12.84778 units box
delete_atoms region GP2_del
# 添加MgZn2
lattice fcc 4.046 orient x 1 1 1 orient y -1 1 0 orient z -1 -1 2  # Al晶格-Zn原子层
create_atoms 2 region GP2_del                                       # 向区域中添加Zn/Mg原子 GPⅡ


# 相对原子质量
mass 1 26.98 # Al
mass 2 65.39 # Zn
mass 3 24.31 # Mg
write_data GPyita.xyz


# 力场/势能函数设置
pair_style     meam/c
pair_coeff     * * library.meam Al Zn Mg AlZnMg.meam Al Zn Mg



compute        csym all centro/atom fcc
compute        peratom all pe/atom
# 热力学参数设置及弛豫平衡
reset_timestep 0
timestep       0.001
velocity       all create 300 12345 mom yes rot no

fix            1 all npt temp 300 300 0.1 iso 0 0 1 drag 1
thermo         5
thermo_style   custom step lx ly lz press pxx pyy pzz pe temp
run            50000   # 1fs timestep
unfix          1

write_data     GPyita40000.xyz


# 变形 疲劳操作
reset_timestep 0
fix            1 all npt temp 300 300 0.1 x 0 0 1 z 0 0 1 drag 1
variable       tmp equal "ly"
variable       L0 equal ${tmp}
variable       e1 equal 0.02*v_L0/ly

variable       px equal "-pxx/10000"  # GPa
variable       py equal "-pxx/10000"
variable       pz equal "-pxx/10000"


fix            delf1 all print 250 "${px} ${py} ${pz}" file H160_MgZnAl.delf1.txt
dump           1 all custom 250 dump_tensile.lammpstrj mass type xs ys zs c_csym c_peratom fx fy fz

thermo         250
thermo_style   custom step temp v_px v_py v_pz ke pe press


fix   5  all deform 1 y erate ${e1} units box remap x
run 10000
unfix 5

print "all done"